CPLEX/src/cplex_evrptwspd/small_instances/Cplex5er/r202C5.dat
Depot_0 = {0};
Stations = {1,2,3,4,5,6,7,8,9,};
Customers = {10,11,12,13,14,};
Depot_N1 = {15};

v = 1.0;
C = 1000.0;
Q = 60.63;
g = 0.49;
h = 1.0;

XCoord = #[
0	:	35.0
1	:	35.0
2	:	35.0
3	:	35.0
4	:	21.0
5	:	21.0
6	:	21.0
7	:	34.0
8	:	34.0
9	:	34.0
10	:	53.0
11	:	5.0
12	:	20.0
13	:	20.0
14	:	47.0
15	:	35.0
]#;

YCoord = #[
0	:	35.0
1	:	35.0
2	:	35.0
3	:	35.0
4	:	22.0
5	:	22.0
6	:	22.0
7	:	16.0
8	:	16.0
9	:	16.0
10	:	43.0
11	:	30.0
12	:	20.0
13	:	40.0
14	:	16.0
15	:	35.0
]#;

q = #[
0	:	0.0
1	:	0.0
2	:	0.0
3	:	0.0
4	:	0.0
5	:	0.0
6	:	0.0
7	:	0.0
8	:	0.0
9	:	0.0
10	:	11.0
11	:	0.0
12	:	8.0
13	:	6.0
14	:	8.0
15	:	0.0
]#;

p = #[
0	:	0.0
1	:	0.0
2	:	0.0
3	:	0.0
4	:	0.0
5	:	0.0
6	:	0.0
7	:	0.0
8	:	0.0
9	:	0.0
10	:	3.0
11	:	2.0
12	:	0.0
13	:	6.0
14	:	17.0
15	:	0.0
]#;

e = #[
0	:	0.0
1	:	0.0
2	:	0.0
3	:	0.0
4	:	0.0
5	:	0.0
6	:	0.0
7	:	0.0
8	:	0.0
9	:	0.0
10	:	86.0
11	:	0.0
12	:	0.0
13	:	403.0
14	:	104.0
15	:	0.0
]#;

l = #[
0	:	1000.0
1	:	1000.0
2	:	1000.0
3	:	1000.0
4	:	1000.0
5	:	1000.0
6	:	1000.0
7	:	1000.0
8	:	1000.0
9	:	1000.0
10	:	224.0
11	:	959.0
12	:	968.0
13	:	513.0
14	:	252.0
15	:	1000.0
]#;

s = #[
0	:	0.0
1	:	0.0
2	:	0.0
3	:	0.0
4	:	0.0
5	:	0.0
6	:	0.0
7	:	0.0
8	:	0.0
9	:	0.0
10	:	10.0
11	:	10.0
12	:	10.0
13	:	10.0
14	:	10.0
15	:	0.0
]#;
